min: c;

c = 3.26363051801052 * u4_t1_h1 + 3.751788944913 * u4_t1_h2 + 3.15698825916387 * u4_t1_h3 + 2.8830762851058 * u4_t1_h4 + 2.8830762851058 * u4_t10_h4 + 3.97768552631738 * u4_t1_h5 + 3.97768552631738 * u4_t10_h5 + 3.71885657003821 * u4_t1_h6 + 3.71885657003821 * u4_t10_h6 + 4.16714535837767 * u4_t1_h7 + 4.16714535837767 * u4_t10_h7 + 5.09686509690236 * u4_t1_h8 + 5.09686509690236 * u4_t9_h8 + 5.09686509690236 * u4_t10_h8 + 4.65936485143157 * u4_t9_h9 + 4.65936485143157 * u4_t10_h9 + 5.55303568355508 * u4_t9_h10 + 5.55303568355508 * u4_t10_h10 + 4.22371664402156 * u4_t2_h11 + 4.22371664402156 * u4_t4_h11 + 4.22371664402156 * u4_t9_h11 + 4.22371664402156 * u4_t10_h11 + 6.67899675989898 * u4_t2_h12 + 6.67899675989898 * u4_t3_h12 + 6.67899675989898 * u4_t4_h12 + 6.67899675989898 * u4_t8_h12 + 6.67899675989898 * u4_t9_h12 + 6.67899675989898 * u4_t10_h12 + 4.86309406837676 * u4_t2_h13 + 4.86309406837676 * u4_t3_h13 + 4.86309406837676 * u4_t4_h13 + 4.86309406837676 * u4_t8_h13 + 4.86309406837676 * u4_t9_h13 + 5.55347252487899 * u4_t2_h14 + 5.55347252487899 * u4_t3_h14 + 5.55347252487899 * u4_t4_h14 + 5.55347252487899 * u4_t8_h14 + 5.55347252487899 * u4_t9_h14 + 5.86908378361079 * u4_t2_h15 + 5.86908378361079 * u4_t3_h15 + 5.86908378361079 * u4_t4_h15 + 5.86908378361079 * u4_t8_h15 + 5.86908378361079 * u4_t9_h15 + 6.36856869336549 * u4_t2_h16 + 6.36856869336549 * u4_t3_h16 + 6.36856869336549 * u4_t4_h16 + 6.36856869336549 * u4_t5_h16 + 6.36856869336549 * u4_t8_h16 + 6.36856869336549 * u4_t9_h16 + 6.05218096648113 * u4_t2_h17 + 6.05218096648113 * u4_t3_h17 + 6.05218096648113 * u4_t5_h17 + 6.05218096648113 * u4_t8_h17 + 6.05218096648113 * u4_t9_h17 + 6.4531438173419 * u4_t2_h18 + 6.4531438173419 * u4_t3_h18 + 6.4531438173419 * u4_t5_h18 + 6.4531438173419 * u4_t8_h18 + 6.4531438173419 * u4_t9_h18 + 5.16982358744511 * u4_t2_h19 + 5.16982358744511 * u4_t3_h19 + 5.16982358744511 * u4_t6_h19 + 5.16982358744511 * u4_t8_h19 + 5.16982358744511 * u4_t9_h19 + 5.45246674180863 * u4_t2_h20 + 5.45246674180863 * u4_t6_h20 + 5.45246674180863 * u4_t9_h20 + 4.83403101941733 * u4_t6_h21 + 5.46830339549282 * u4_t6_h22 + 5.46830339549282 * u4_t7_h22 + 5.00490505123966 * u4_t6_h23 + 5.00490505123966 * u4_t7_h23;
0 <= u4_t1_h1 <= 1;
0 <= u4_t1_h2 <= 1;
0 <= u4_t1_h3 <= 1;
0 <= u4_t1_h4 <= 1;
0 <= u4_t1_h5 <= 1;
0 <= u4_t1_h6 <= 1;
0 <= u4_t1_h7 <= 1;
0 <= u4_t1_h8 <= 1;
u4_t1_h1 + u4_t1_h2 + u4_t1_h3 + u4_t1_h4 + u4_t1_h5 + u4_t1_h6 + u4_t1_h7 + u4_t1_h8 = 1;
0 <= u4_t2_h11 <= 1;
0 <= u4_t2_h12 <= 1;
0 <= u4_t2_h13 <= 1;
0 <= u4_t2_h14 <= 1;
0 <= u4_t2_h15 <= 1;
0 <= u4_t2_h16 <= 1;
0 <= u4_t2_h17 <= 1;
0 <= u4_t2_h18 <= 1;
0 <= u4_t2_h19 <= 1;
0 <= u4_t2_h20 <= 1;
u4_t2_h11 + u4_t2_h12 + u4_t2_h13 + u4_t2_h14 + u4_t2_h15 + u4_t2_h16 + u4_t2_h17 + u4_t2_h18 + u4_t2_h19 + u4_t2_h20 = 2;
0 <= u4_t3_h12 <= 1;
0 <= u4_t3_h13 <= 1;
0 <= u4_t3_h14 <= 1;
0 <= u4_t3_h15 <= 1;
0 <= u4_t3_h16 <= 1;
0 <= u4_t3_h17 <= 1;
0 <= u4_t3_h18 <= 1;
0 <= u4_t3_h19 <= 1;
u4_t3_h12 + u4_t3_h13 + u4_t3_h14 + u4_t3_h15 + u4_t3_h16 + u4_t3_h17 + u4_t3_h18 + u4_t3_h19 = 3;
0 <= u4_t4_h11 <= 1;
0 <= u4_t4_h12 <= 1;
0 <= u4_t4_h13 <= 1;
0 <= u4_t4_h14 <= 1;
0 <= u4_t4_h15 <= 1;
0 <= u4_t4_h16 <= 1;
u4_t4_h11 + u4_t4_h12 + u4_t4_h13 + u4_t4_h14 + u4_t4_h15 + u4_t4_h16 = 3;
0 <= u4_t5_h16 <= 1;
0 <= u4_t5_h17 <= 1;
0 <= u4_t5_h18 <= 1;
u4_t5_h16 + u4_t5_h17 + u4_t5_h18 = 1;
0 <= u4_t6_h19 <= 1;
0 <= u4_t6_h20 <= 1;
0 <= u4_t6_h21 <= 1;
0 <= u4_t6_h22 <= 1;
0 <= u4_t6_h23 <= 1;
u4_t6_h19 + u4_t6_h20 + u4_t6_h21 + u4_t6_h22 + u4_t6_h23 = 3;
0 <= u4_t7_h22 <= 1;
0 <= u4_t7_h23 <= 1;
u4_t7_h22 + u4_t7_h23 = 1;
0 <= u4_t8_h12 <= 1;
0 <= u4_t8_h13 <= 1;
0 <= u4_t8_h14 <= 1;
0 <= u4_t8_h15 <= 1;
0 <= u4_t8_h16 <= 1;
0 <= u4_t8_h17 <= 1;
0 <= u4_t8_h18 <= 1;
0 <= u4_t8_h19 <= 1;
u4_t8_h12 + u4_t8_h13 + u4_t8_h14 + u4_t8_h15 + u4_t8_h16 + u4_t8_h17 + u4_t8_h18 + u4_t8_h19 = 2;
0 <= u4_t9_h8 <= 1;
0 <= u4_t9_h9 <= 1;
0 <= u4_t9_h10 <= 1;
0 <= u4_t9_h11 <= 1;
0 <= u4_t9_h12 <= 1;
0 <= u4_t9_h13 <= 1;
0 <= u4_t9_h14 <= 1;
0 <= u4_t9_h15 <= 1;
0 <= u4_t9_h16 <= 1;
0 <= u4_t9_h17 <= 1;
0 <= u4_t9_h18 <= 1;
0 <= u4_t9_h19 <= 1;
0 <= u4_t9_h20 <= 1;
u4_t9_h8 + u4_t9_h9 + u4_t9_h10 + u4_t9_h11 + u4_t9_h12 + u4_t9_h13 + u4_t9_h14 + u4_t9_h15 + u4_t9_h16 + u4_t9_h17 + u4_t9_h18 + u4_t9_h19 + u4_t9_h20 = 2;
0 <= u4_t10_h4 <= 1;
0 <= u4_t10_h5 <= 1;
0 <= u4_t10_h6 <= 1;
0 <= u4_t10_h7 <= 1;
0 <= u4_t10_h8 <= 1;
0 <= u4_t10_h9 <= 1;
0 <= u4_t10_h10 <= 1;
0 <= u4_t10_h11 <= 1;
0 <= u4_t10_h12 <= 1;
u4_t10_h4 + u4_t10_h5 + u4_t10_h6 + u4_t10_h7 + u4_t10_h8 + u4_t10_h9 + u4_t10_h10 + u4_t10_h11 + u4_t10_h12 = 2;
